100 8
559 336
125 366
109 883
339 474
529 699
321 623
579 836
839 684
334 609
201 783
708 450
181 950
812 373
304 506
573 393
339 305
523 839
197 829
850 674
630 921
494 588
821 480
661 438
693 206
183 324
754 738
218 381
227 796
321 295
756 208
763 630
559 185
458 158
175 265
480 514
352 210
604 186
432 198
600 715
666 322
420 485
695 409
94 278
525 147
187 454
170 889
522 807
314 376
231 958
719 490
501 534
786 629
818 725
757 381
311 644
163 409
91 762
301 384
122 831
613 338
601 614
828 559
393 570
404 532
871 176
257 947
448 32
738 402
186 933
144 267
538 613
167 378
330 302
330 213
465 468
767 651
242 775
52 729
642 167
618 505
636 276
781 728
589 711
473 791
465 828
704 184
317 270
442 101
585 955
94 264
577 331
200 360
666 243
144 894
131 339
407 207
405 272
795 201
526 675
23 280
